10000   55   97   26   8   69   42   11   43   6   
33   10000   79   75   74   44   75   48   49   36   
82   92   10000   69   7   97   44   63   45   11   
32   72   17   10000   57   16   93   81   95   54   
12   1   47   40   10000   36   62   14   14   36   
43   68   23   52   83   10000   15   25   29   90   
30   11   36   23   77   51   10000   84   88   40   
22   41   5   53   26   30   15   10000   21   94   
7   62   96   84   51   35   44   10   10000   19   
94   68   36   61   40   70   36   46   2   10000   
